Traveling Salesman Problem/TSP_generados/Aleatorio1621103571_16.tsp
NAME: Aleatorio1621103571_16.tsp
COMMENT: Randomly generated scenario
TYPE: TSP
DIMENSION: 16
EDGE_WEIGHT_TYPE: ATT
NODE_COORD_SECTION
1 11.1 38.64
2 44.85 22.42
3 14.86 41.76
4 49.17 11.13
5 43.11 43.43
6 48.19 9.06
7 41.23 25.57
8 36.94 39.29
9 19.04 31.8
10 45.95 42.06
11 33.1 1.19
12 6.51 31.0
13 32.41 26.31
14 14.28 37.14
15 45.93 40.89
16 25.13 6.57
