Traveling Salesman Problem/TSP_generados/Aleatorio1621103571_16.opt.tour
NAME: Aleatorio1621103571_16.opt.tour
COMMENT: Optimal solution for Aleatorio1621103571_16 (158.11681027231333)
TYPE: TOUR
DIMENSION: 16
TOUR_SECTION
1 3 14 9 13 8 5 10 15 7 2 4 6 11 16 12
-1
EOF
